unknown
(model
; cardinality of BoundSet is 4
(declare-sort BoundSet 0)
; rep: @uc_BoundSet_0
; rep: @uc_BoundSet_1
; rep: @uc_BoundSet_2
; rep: @uc_BoundSet_3
; cardinality of UnboundSet is 1
(declare-sort UnboundSet 0)
(declare-fun groundTerm_5 () UnboundSet)
(define-fun Is800YearsAfter ((BOUND_VARIABLE_477 BoundSet)) Bool true)
(define-fun IsInAtmosphere ((BOUND_VARIABLE_477 BoundSet)) Bool true)
(define-fun IsNaturalWarming ((BOUND_VARIABLE_477 BoundSet)) Bool true)
(define-fun IsCarbonDioxide ((BOUND_VARIABLE_477 BoundSet)) Bool true)
(define-fun IsNoCorrelation ((BOUND_VARIABLE_489 BoundSet) (BOUND_VARIABLE_490 BoundSet)) Bool false)
(define-fun IsOnAnyTimescale ((BOUND_VARIABLE_477 BoundSet)) Bool false)
)
sat
(model
; cardinality of BoundSet is 1
(declare-sort BoundSet 0)
; rep: @uc_BoundSet_0
; cardinality of UnboundSet is 1
(declare-sort UnboundSet 0)
(declare-fun groundTerm_7 () UnboundSet)
(define-fun Is800YearsAfter ((BOUND_VARIABLE_521 BoundSet)) Bool true)
(define-fun IsInAtmosphere ((BOUND_VARIABLE_521 BoundSet)) Bool true)
(define-fun IsNaturalWarming ((BOUND_VARIABLE_521 BoundSet)) Bool true)
(define-fun IsCarbonDioxide ((BOUND_VARIABLE_521 BoundSet)) Bool true)
(define-fun IsNoCorrelation ((BOUND_VARIABLE_529 BoundSet) (BOUND_VARIABLE_530 BoundSet)) Bool false)
(define-fun IsOnAnyTimescale ((BOUND_VARIABLE_521 BoundSet)) Bool false)
)
